l=2918;
a=5;
setup_costs=[|1,2,1,1,2,
|0,0,2,0,0,
|1,2,1,0,2,
|1,1,0,3,2,
|0,2,2,3,0,
|0,0,0,0,0|];
setup_times=[|0,2,2,1,1,
|1,0,3,3,3,
|1,2,3,1,2,
|0,3,3,2,0,
|3,2,0,3,0,
|0,0,0,0,0|];
m=5;
min_cap=[0,0,0,0,0];
max_cap=[18,15,10,14,11];

initState=[2,5,3,5,1];
s=5;
m_a_s = [|0,116,352,526,2404,
|53,340,388,1186,1484,
|0,0,0,0,514,
|608,774,1259,1985,2592,
|0,0,117,1365,2787|];
m_a_e = [|0,307,489,2006,2902,
|315,378,1048,1448,2899,
|0,0,0,0,2597,
|737,1212,1964,2525,2845,
|0,0,1351,2539,2911|];
n=250;
eligible_machine = [{2,1,3},
{3,2,4,5},
{4,1,2,5},
{4,5},
{4,1,2},
{2,5},
{2,1},
{5,1},
{3,1,5},
{4,2,5},
{3,2,4},
{2},
{5,2,4},
{4,1},
{5,1,2,3,4},
{5,1,3},
{5,1,4},
{3,1,4},
{2,1},
{3,1,4},
{5,3,4},
{1,2,4},
{1,5},
{4,1,2,5},
{1,3,4},
{4},
{4,1,2},
{4,1,2,3,5},
{5,2,3},
{4,1,2,5},
{4,2,3},
{2,1,3,4},
{4,2,3,5},
{3,1,5},
{1,2},
{1,2,3,4},
{4,1,2,3,5},
{2},
{4,2,3},
{1,3,4,5},
{1,3},
{2,1},
{1,4},
{2},
{3,1,5},
{4,5},
{5,2,3},
{5,1,2},
{3,1,2},
{3,4,5},
{2,1,5},
{1},
{2,1,4,5},
{3,5},
{2,1,3,5},
{1,2},
{2,1,3,4,5},
{3,1,2,4},
{3,2},
{2,4},
{1,2,3,4,5},
{1,3},
{4,1,2,3,5},
{1,5},
{1,2,3,4,5},
{4,3},
{5,1,3,4},
{1,3,4,5},
{5,1,2,3},
{2,5},
{4,1,3},
{1,2,3,4,5},
{4,1,2,3,5},
{2,1,5},
{3,2,4,5},
{5,1,3,4},
{1,3,5},
{4,3},
{2},
{3,1,2,4,5},
{5,1},
{3,1,4},
{1,2,3,4,5},
{1,3,5},
{3,1,2},
{3,2,5},
{3,2,5},
{4,5},
{2,1},
{2,5},
{1,3,4},
{1,3,4},
{3,5},
{3,1,2,5},
{1,2,3,5},
{4,1,3,5},
{5,1,2,3,4},
{5},
{5,2},
{4,1,5},
{2,1,3,5},
{1,2,5},
{5,1,3,4},
{1,3,5},
{3,2},
{2,1},
{5,4},
{5,2},
{3,2,4},
{5},
{5,3},
{2,1,3,5},
{3,1,2},
{3},
{5,1},
{3,4},
{4,1,2,5},
{1,2},
{5,3},
{4,2},
{4,1,2,3},
{3,2,4,5},
{5,1,2,3},
{3,1,2,5},
{4,2,5},
{5,1,3,4},
{1,4,5},
{5,2},
{4,2},
{4,1,2,3},
{4,1,5},
{1,2,5},
{2,5},
{2,3,4,5},
{5,3,4},
{3,1},
{5,2},
{5,2},
{5,3,4},
{3,2,5},
{2,3,4,5},
{1,2,3,5},
{5,1,2,3,4},
{5,2,3},
{2,4,5},
{5,2,4},
{3,5},
{4,2,3,5},
{4,1,3},
{1,3,5},
{4,5},
{1,3,4,5},
{1,4},
{3,2,5},
{1},
{4,2,3},
{1},
{2,1,3,5},
{1,2,3,5},
{3},
{1,5},
{2,1,5},
{1,3,4,5},
{2,3,4},
{4,5},
{5,1,2,3,4},
{5,3,4},
{3,1,2,4},
{5,2,4},
{5,1,2,3},
{5,1,2,3,4},
{3,2},
{5,2,4},
{4,2,5},
{3,2,5},
{3,1,2},
{4,1,3,5},
{3,1},
{2,1,3,4,5},
{3,1,2},
{2,1,3,5},
{3,1,2,4,5},
{3,4},
{4,3},
{1,4},
{4,5},
{2,3,5},
{1,5},
{1,3,4},
{1,3,4,5},
{3,4,5},
{2,3,4,5},
{4},
{4,3},
{1,2,3,5},
{3,1},
{1},
{4,1,3,5},
{3,1,2},
{3,1,2,4,5},
{4,1,3,5},
{2,3},
{5,2,4},
{3,2,4},
{1,4,5},
{2,1,3,4,5},
{5,1,2,4},
{3,4,5},
{1,2,4},
{3,1,4},
{1,3,4,5},
{1,2,4},
{2,1,3},
{1,2,3,4},
{2,3,4,5},
{1,3},
{4,1,2,5},
{2,3,4,5},
{4,1},
{3,4},
{3},
{4,1},
{5,1,2,3},
{1,3,4},
{4,3},
{3,4},
{3,2,5},
{3,5},
{4,1,3,5},
{2,1,4,5},
{2,4},
{2,5},
{5,1},
{2,1,3},
{1,2,3,4},
{2,3,5},
{1,3,5},
{5,1,2,4},
{1,2,5},
{2,4,5},
{4,1},
{3,2,4,5},
{1,2,4,5},
{2,1,3,4},
{2,4,5},
{4,2},
{5,2,3},
{4,2,3},
{5},
{5,4}];
earliest_start=[27,46,105,82,51,127,89,113,86,59,127,48,42,12,35,84,32,17,32,76,24,3,117,1,71,52,13,111,64,62,123,96,72,119,82,91,76,41,73,56,82,5,97,80,17,36,22,60,105,129,36,106,67,9,20,24,64,104,10,134,113,112,49,23,71,30,111,57,65,79,8,125,78,110,128,19,40,36,118,35,29,88,6,70,26,16,29,63,99,57,27,106,31,73,78,104,90,74,8,121,60,100,129,26,121,45,27,92,15,1,119,27,121,109,104,25,106,114,132,55,1,47,92,7,52,36,94,5,31,24,63,101,28,131,110,64,93,115,84,115,124,71,48,98,73,134,120,56,103,52,133,111,77,88,120,12,7,122,109,84,86,22,60,125,73,17,134,124,134,40,66,125,29,16,65,65,133,129,69,52,50,37,36,114,25,86,24,74,10,97,56,106,6,134,29,101,10,57,25,55,0,130,57,63,121,7,81,60,22,55,14,13,52,56,33,49,120,81,99,121,128,59,114,36,118,95,119,30,121,98,54,76,103,14,51,55,114,108,128,18,4,98,51,90,83,43,53,84,100,115];
latest_end=[30,53,117,98,61,133,90,117,87,74,136,51,53,27,44,94,36,25,49,81,33,6,122,9,72,61,15,122,69,63,132,100,85,128,90,100,79,45,76,62,96,11,107,85,29,39,32,66,106,142,51,120,81,14,28,34,69,118,11,140,123,118,59,26,76,35,112,65,77,87,18,142,79,120,137,20,56,48,127,42,36,104,7,77,28,23,36,64,100,71,32,116,34,74,87,105,99,86,11,129,76,105,136,33,122,60,41,102,16,4,127,37,125,112,110,28,114,116,140,62,13,59,101,16,53,46,99,14,33,27,76,104,45,132,113,65,95,123,97,123,143,80,56,99,88,144,125,57,105,57,137,112,88,93,132,26,20,141,114,89,90,35,67,130,76,19,135,132,135,54,74,142,30,28,78,82,144,132,77,55,51,38,39,123,40,94,38,87,15,103,61,120,15,137,30,120,17,59,39,60,4,133,67,74,127,21,86,64,23,65,26,23,57,59,36,61,135,89,100,127,140,63,122,40,133,103,129,33,130,110,72,77,116,18,52,69,124,120,135,21,5,117,55,100,84,54,62,94,115,125];
min_time=[2,5,8,9,7,6,1,3,1,8,9,2,9,8,5,6,3,5,10,4,6,3,3,5,1,8,2,9,4,1,6,4,7,5,7,5,2,3,2,5,8,4,8,5,9,2,10,4,1,8,10,8,8,4,5,7,4,10,1,4,6,5,8,2,5,4,1,5,7,5,7,10,1,9,7,1,9,7,6,6,5,10,1,6,2,6,6,1,1,9,5,9,2,1,6,1,6,7,2,5,10,3,7,4,1,8,10,10,1,2,7,7,3,3,6,3,6,2,6,6,10,9,8,9,1,8,5,7,2,2,9,2,10,1,2,1,2,8,8,8,10,6,5,1,8,7,4,1,2,3,4,1,9,4,10,8,10,10,4,5,4,7,6,3,2,2,1,5,1,8,6,9,1,9,7,9,6,2,7,3,1,1,2,7,9,8,8,7,4,4,4,8,8,2,1,10,5,2,8,3,3,2,6,9,6,9,3,4,1,7,8,7,5,3,2,9,10,5,1,4,7,4,5,3,8,6,10,3,6,10,10,1,9,4,1,9,9,10,5,3,1,10,4,9,1,7,6,6,10,7];
max_time=[6,10,9,10,7,9,1,6,5,10,9,8,9,9,8,9,8,7,10,10,8,6,6,7,3,9,9,10,9,7,8,4,10,7,10,5,9,6,9,7,9,5,8,7,10,3,10,4,3,8,10,8,9,6,7,9,8,10,1,8,6,10,8,6,6,10,3,8,7,5,7,10,6,9,7,10,9,10,10,8,10,10,8,6,4,10,6,5,10,9,9,9,5,10,8,9,6,10,7,7,10,5,7,8,3,9,10,10,8,8,9,9,8,7,7,6,8,8,8,10,10,9,9,9,10,9,9,8,8,10,10,9,10,5,4,6,4,9,9,10,10,9,9,9,10,10,8,2,10,6,6,9,9,5,10,10,10,10,7,5,5,8,7,6,7,8,3,8,7,8,9,9,9,9,8,10,6,3,9,8,9,4,10,9,9,9,8,9,5,8,5,10,9,10,3,10,5,8,9,3,4,4,6,9,9,9,7,10,2,9,10,9,6,8,10,10,10,5,5,7,10,7,8,9,8,8,10,6,8,10,10,7,9,10,2,10,9,10,6,9,4,10,5,9,1,8,6,8,10,8];
size=[5,5,1,5,1,3,4,3,5,5,3,2,5,5,2,1,5,1,1,2,5,1,3,4,1,4,3,5,1,5,2,4,4,2,3,2,3,2,2,2,4,2,3,1,1,5,4,1,3,2,1,4,3,4,1,4,4,3,3,2,4,2,3,5,2,3,3,1,3,2,3,2,4,3,3,2,2,2,4,3,3,5,4,1,1,1,1,2,3,5,2,3,1,4,4,2,1,1,3,2,5,1,1,3,1,5,3,1,3,2,5,4,4,2,2,2,2,1,3,4,4,4,2,1,3,1,5,1,2,1,5,2,5,1,4,4,3,4,3,2,4,4,4,4,4,1,2,5,2,5,2,5,2,3,1,1,3,1,2,5,2,5,4,1,4,1,5,5,3,5,4,1,5,1,2,5,2,5,4,4,5,3,4,1,3,1,5,2,5,3,4,1,4,4,5,2,2,3,2,1,5,5,2,3,1,5,2,2,5,5,1,4,1,1,5,3,4,1,5,2,2,5,4,1,3,1,4,1,4,5,3,5,1,4,4,5,5,1,5,2,2,4,1,1,2,1,4,3,5,5];
attribute=[2,3,5,3,4,1,2,2,3,4,3,5,3,1,3,4,5,3,2,2,3,1,1,5,2,3,3,5,3,2,3,2,3,5,3,4,5,4,3,2,4,3,5,4,4,2,4,2,2,4,4,5,4,4,5,4,5,4,2,1,5,5,5,4,2,4,5,5,3,4,3,5,2,2,2,5,4,2,1,3,1,2,3,5,2,4,5,2,4,5,1,2,1,3,1,4,1,4,3,4,1,2,2,3,4,2,5,4,3,3,2,3,5,5,4,4,1,2,3,3,4,5,3,1,5,4,3,5,1,2,1,1,1,3,5,4,2,5,2,2,4,1,2,4,1,4,2,4,1,4,4,4,4,5,2,1,2,5,5,3,5,4,1,4,1,4,4,5,5,2,1,4,5,4,1,4,5,4,3,5,1,3,1,3,1,1,1,1,4,2,4,4,1,5,3,4,1,2,4,3,3,2,2,3,5,3,2,1,5,3,4,5,5,1,5,4,3,3,3,4,3,4,3,5,1,4,5,2,4,5,4,3,1,2,3,5,2,1,5,4,5,3,1,3,2,3,2,2,2,5];

upper_bound_integer_objective=252402838;
mult_factor_total_runtime=188501;
mult_factor_finished_toolate=751;
mult_factor_total_setuptimes=0;
mult_factor_total_setupcosts=1;
running_time_bound=1338;
min_duration=1;
max_duration=10;
max_setup_time=3;
max_setup_cost=3;
